100 36 100
73 34 11 58 19 79 87 62 91 98 63 40 93 30 34 91 24 45 72 70 35 17 43 53 9 38 62 1 59 81 45 32 15 8 90 34 88 30 48 79 80 11 72 73 94 6 64 70 3 37 40 90 6 84 43 68 74 58 69 33 39 66 17 6 75 60 40 15 42 88 46 22 52 18 95 98 76 59 68 31 48 9 21 7 45 17 75 19 75 96 5 66 62 22 72 37 82 64 4 24 
